\ENCODING=ISO-8859-1
\Problem name: IloCplex

Minimize
 obj: z25 + z26 + z27 + z28 + z29 + z30 + z31 + z32 + z33 + z34 + z35 + z36
      + z37 + z38 + z39 + z40 + z41 + z42 + z43 + z44 + z45 + z46 + z47 + z48
      + z49 + z50 + z51 + z52 + z53 + z54 + z55 + z56 + z57 + z58 + z59 + z60
      + z61 + z62 + z63 + z64 + z65 + z66 + z67 + z68 + z69 + z70 + z71 + z72
      + z73 + z74 + z75 + z76 + z77 + z78 + z79 + z80 + z81 + z82 + z83 + z84
      + z85 + z86 + z87 + z88 + z89 + z90 + z91 + z92 + z93 + z94 + z95 + z96
      + z97 + z98 + z99 + z100 + z101 + z102 + z103 + z104 + z105 + z106 + z107
      + z108 + z109 + z110 + z111 + z112 + z113 + z114 + z115 + z116 + z117
      + z118 + z119 + z120 + z121 + z122 + z123 + z124
Subject To
 c1: z25 + z26 + z27 + z28 + z29 + z30 + z31 + z32 + z33 + z34 + z35 + z36
     + z37 + z38 + z39 + z40 + z41 + z42 + z43 + z44 + z45 + z46 + z47 + z48
     + z49 + z50 + z51 + z52 + z53 + z54 + z55 + z56 + z57 + z58 + z59 + z60
     + z61 + z62 + z63 + z64 + z65 + z66 + z67 + z68 + z69 + z70 + z71 + z72
     + z73 + z74 + z75 + z76 + z77 + z78 + z79 + z80 + z81 + z82 + z83 + z84
     + z85 + z86 + z87 + z88 + z89 + z90 + z91 + z92 + z93 + z94 + z95 + z96
     + z97 + z98 + z99 + z100 + z101 + z102 + z103 + z104 + z105 + z106 + z107
     + z108 + z109 + z110 + z111 + z112 + z113 + z114 + z115 + z116 + z117
     + z118 + z119 + z120 + z121 + z122 + z123 + z124 + 28 z16 + 35 z1 + 47 z10
     + 48 z9 + 34 z14 + 30 z15 + 37 z2 + 37 z8 + 34 z11 + 40 z23 + 41 z21
     + 42 z12 + 34 z17 + 46 z4 + 33 z3 + 37 z13 + 49 z18 + 42 z0 + 46 z20
     + 43 z6 + 42 z19 + 47 z7 + 34 z22 + 32 z24 + 52 z5 >= 100
 c2: z16 + z1 + z10 + z9 + z14 + z15 + z2 + z8 + z11 + z23 + z21 + z12 + z17
     + z4 + z3 + z13 + z18 + z0 + z20 + z6 + z19 + z7 + z22 + z24 + z5 <= 3
Bounds
 0 <= z25 <= 1
 0 <= z26 <= 1
 0 <= z27 <= 1
 0 <= z28 <= 1
 0 <= z29 <= 1
 0 <= z30 <= 1
 0 <= z31 <= 1
 0 <= z32 <= 1
 0 <= z33 <= 1
 0 <= z34 <= 1
 0 <= z35 <= 1
 0 <= z36 <= 1
 0 <= z37 <= 1
 0 <= z38 <= 1
 0 <= z39 <= 1
 0 <= z40 <= 1
 0 <= z41 <= 1
 0 <= z42 <= 1
 0 <= z43 <= 1
 0 <= z44 <= 1
 0 <= z45 <= 1
 0 <= z46 <= 1
 0 <= z47 <= 1
 0 <= z48 <= 1
 0 <= z49 <= 1
 0 <= z50 <= 1
 0 <= z51 <= 1
 0 <= z52 <= 1
 0 <= z53 <= 1
 0 <= z54 <= 1
 0 <= z55 <= 1
 0 <= z56 <= 1
 0 <= z57 <= 1
 0 <= z58 <= 1
 0 <= z59 <= 1
 0 <= z60 <= 1
 0 <= z61 <= 1
 0 <= z62 <= 1
 0 <= z63 <= 1
 0 <= z64 <= 1
 0 <= z65 <= 1
 0 <= z66 <= 1
 0 <= z67 <= 1
 0 <= z68 <= 1
 0 <= z69 <= 1
 0 <= z70 <= 1
 0 <= z71 <= 1
 0 <= z72 <= 1
 0 <= z73 <= 1
 0 <= z74 <= 1
 0 <= z75 <= 1
 0 <= z76 <= 1
 0 <= z77 <= 1
 0 <= z78 <= 1
 0 <= z79 <= 1
 0 <= z80 <= 1
 0 <= z81 <= 1
 0 <= z82 <= 1
 0 <= z83 <= 1
 0 <= z84 <= 1
 0 <= z85 <= 1
 0 <= z86 <= 1
 0 <= z87 <= 1
 0 <= z88 <= 1
 0 <= z89 <= 1
 0 <= z90 <= 1
 0 <= z91 <= 1
 0 <= z92 <= 1
 0 <= z93 <= 1
 0 <= z94 <= 1
 0 <= z95 <= 1
 0 <= z96 <= 1
 0 <= z97 <= 1
 0 <= z98 <= 1
 0 <= z99 <= 1
 0 <= z100 <= 1
 0 <= z101 <= 1
 0 <= z102 <= 1
 0 <= z103 <= 1
 0 <= z104 <= 1
 0 <= z105 <= 1
 0 <= z106 <= 1
 0 <= z107 <= 1
 0 <= z108 <= 1
 0 <= z109 <= 1
 0 <= z110 <= 1
 0 <= z111 <= 1
 0 <= z112 <= 1
 0 <= z113 <= 1
 0 <= z114 <= 1
 0 <= z115 <= 1
 0 <= z116 <= 1
 0 <= z117 <= 1
 0 <= z118 <= 1
 0 <= z119 <= 1
 0 <= z120 <= 1
 0 <= z121 <= 1
 0 <= z122 <= 1
 0 <= z123 <= 1
 0 <= z124 <= 1
 0 <= z16 <= 1
 0 <= z1 <= 1
 0 <= z10 <= 1
 0 <= z9 <= 1
 0 <= z14 <= 1
 0 <= z15 <= 1
 0 <= z2 <= 1
 0 <= z8 <= 1
 0 <= z11 <= 1
 0 <= z23 <= 1
 0 <= z21 <= 1
 0 <= z12 <= 1
 0 <= z17 <= 1
 0 <= z4 <= 1
 0 <= z3 <= 1
 0 <= z13 <= 1
 0 <= z18 <= 1
 0 <= z0 <= 1
 0 <= z20 <= 1
 0 <= z6 <= 1
 0 <= z19 <= 1
 0 <= z7 <= 1
 0 <= z22 <= 1
 0 <= z24 <= 1
 0 <= z5 <= 1
Binaries
 z25  z26  z27  z28  z29  z30  z31  z32  z33  z34  z35  z36  z37  z38  z39 
 z40  z41  z42  z43  z44  z45  z46  z47  z48  z49  z50  z51  z52  z53  z54 
 z55  z56  z57  z58  z59  z60  z61  z62  z63  z64  z65  z66  z67  z68  z69 
 z70  z71  z72  z73  z74  z75  z76  z77  z78  z79  z80  z81  z82  z83  z84 
 z85  z86  z87  z88  z89  z90  z91  z92  z93  z94  z95  z96  z97  z98  z99 
 z100  z101  z102  z103  z104  z105  z106  z107  z108  z109  z110  z111  z112 
 z113  z114  z115  z116  z117  z118  z119  z120  z121  z122  z123  z124  z16 
 z1  z10  z9  z14  z15  z2  z8  z11  z23  z21  z12  z17  z4  z3  z13  z18  z0 
 z20  z6  z19  z7  z22  z24  z5 
End
